products = { p1, p2 };
warehouses = { w1, w2, w3 };
product_in_warehouse = [|6, 1, 9,
          |4, 8, 0 |];
product_request = [7, 8];
product_price = [4, 2];
shipping_free_threshold = [8, 5, 20];
shipping_fee = [1, 1, 2];
